ALGO = Fast
EDIFF = 1e-8
ENCUT = 300
IBRION = -1
ICHARG = 11
ISIF = 2
ISMEAR = 1
ISPIN = 1
LWAVE = True
NELM = 100
PREC = Accurate
SIGMA = 0.05
NWRITE=3
NELMIN = 5
