Fe2 Se2
1.0
3.651424 0.000000 0.000000
0.000000 3.651424 0.000000
0.000000 0.000000 5.873946
Fe Se
2 2
direct
0.000000 0.000000 0.000000 Fe
0.500000 0.500000 0.000000 Fe
0.000000 0.500000 0.241204 Se
0.500000 0.000000 0.758797 Se
