Ge2 S2
   1.00000000000000
     3.6720065895600151    0.0000000000000000    0.0000000000000000
     0.0000000000000000    4.4093737291643995    0.0000000000000000
     0.0000000000000000    0.0000000000000000   22.6771990000000017
   Ge   S
     2     2
Direct
  0.2500000000000000  0.3693014484321027  0.1167554068570055
  0.7500000000000000  0.8693014484321028  0.0013015931429947
  0.2500000000000000  0.4975205515678964  0.0125715612849763
  0.7500000000000000 -0.0024794484321037  0.1054844387150194