pymatgen generated KPOINTS with grid density = 636.019584956 / atom
0
Monkhorst
4 4 1
