ALGO = Fast
EDIFF = 0.0002
ENCUT = 520
ICHARG = 1
ISIF = 3
ISMEAR = -5
ISPIN = 1
LORBIT = 11
LWAVE = .FALSE.
NELM = 100
PREC = Accurate
SIGMA = 0.05
