elephon created this file.
4.038930
1.000000 0.000000 0.000000 
0.000000 1.000000 0.000000 
0.000000 0.000000 1.000000 
Al 
2 
direct
0.000000 0.000000 0.000000  Al
0.000000 0.500000 0.500000  Al
0.500000 0.000000 0.500000  Al
0.500000 0.500000 0.000000  Al
