elephon created this file
0
Gamma Monkhorst-Pack
16 16 16
0.000000 0.000000 0.000000
