elephon created this file.
 1.0
-2.019739170000 0.000000000000 2.019739170000 
0.000000000000 2.019739170000 2.019739170000 
-2.019739170000 2.019739170000 0.000000000000 
Al 
1 
direct
0.000000000000 0.000000000000 0.000000000000  Al
