ALGO = Fast
EDIFF = 0.0002
ENCUT = 520
IBRON = -1
ICHARG = 1
ISIF = 3
ISMEAR = -5
ISPIN = 1
LORBIT = 11
LVHAR = .FALSE.
LVTOT = .TRUE.
LWAVE = .FALSE.
NELM = 100
NSW = 0
PREC = High
SIGMA = 0.05
NWRITE = 3
