elephon created this file
0
Monkhorst-Pack
3 3 6
0.000000 0.000000 0.000000
