ALGO = Normal
EDIFF = 1e-8
ENCUT = 300
IBRION = -1
ICHARG = 1
ISIF = 3
ISMEAR = 2
ISPIN = 1
LCHARG = .FALSE.
LREAL = False
LVHAR = .FALSE.
LVTOT = .TRUE.
LWAVE = .FALSE.
NELM = 100
NGX = 64
NGXF = 128
NGY = 64
NGYF = 128
NGZ = 64
NGZF = 128
NSW = 0
NWRITE = 3
PREC = Accurate
SIGMA = 0.1
