elephon created this file
0
Gamma Monkhorst-Pack
4 4 4
0.000000 0.000000 0.000000
