elephon created this file
0
Gamma Monkhorst-Pack
10 10 10
