Al_mp-134_primitive.cif                 
   1.0000000000000000     
    -2.0190061864268953   -0.0000000000000000    2.0190061864268953
     0.0000000000000001    2.0190061864268953    2.0190061864268953
    -2.0190061864268953    2.0190061864268953   -0.0000000000000001
   Al
     1
Direct
  0.0000000000000000  0.0000000000000000  0.0000000000000000

  0.00000000E+00  0.00000000E+00  0.00000000E+00
