ALGO = Fast
ECUT = 510
EDIFF = 1e-07
IBRION = -1
ICHARG = 11
ISIF = 3
ISMEAR = 1
ISPIN = 1
LAECHG = True
LREAL = Auto
LWAVE = True
NELM = 100
NELMIN = 5
NPAR = 2
NSW = 0
PREC = Accurate
SIGMA = 0.1
NWRITE=3
