pymatgen generated KPOINTS with grid density = 1286.68841015 / atom
0
Gamma
3 3 2
