Mg1 B2                                  
   1.0000000000000000     
     3.0559564641377066   -0.0000000000000000   -0.0000000000000000
    -1.5279782320688533    2.6465359670592128   -0.0000000000000000
     0.0000000000000000    0.0000000000000000    3.5091646032492880
   B    Mg
     2     1
Direct
  0.6666669999999968  0.3333330000000032  0.5000000000000000
  0.3333330000000032  0.6666669999999968  0.5000000000000000
  0.0000000000000000 -0.0000000000000000  0.0000000000000000

  0.00000000E+00  0.00000000E+00  0.00000000E+00
  0.00000000E+00  0.00000000E+00  0.00000000E+00
  0.00000000E+00  0.00000000E+00  0.00000000E+00
