ALGO = Normal
EDIFF = 1e-8
ENCUT = 300
IBRION = -1
ICHARG = 1
ISIF = 3
ISMEAR = 2
ISPIN = 1
LCHARG = .FALSE.
LREAL = False
LVHAR = .FALSE.
LVTOT = .TRUE.
LWAVE = .FALSE.
NELM = 100
NGX = 32
NGXF = 64
NGY = 32
NGYF = 64
NGZ = 32
NGZF = 64
NSW = 0
NWRITE = 3
PREC = Accurate
SIGMA = 0.2
