elephon created this file
0
Gamma Monkhorst-Pack
5 5 5
0.000000 0.000000 0.000000
