elephon created this file.
 1.0
-4.038012372854 -0.000000000000 4.038012372854 
0.000000000000 4.038012372854 4.038012372854 
-4.038012372854 4.038012372854 -0.000000000000 
Al 
8 
direct
0.001751125841 0.000000000000 0.000000000000  Al
0.500000000000 0.000000000000 0.000000000000  Al
0.000000000000 0.500000000000 0.000000000000  Al
0.500000000000 0.500000000000 0.000000000000  Al
0.000000000000 0.000000000000 0.500000000000  Al
0.500000000000 0.000000000000 0.500000000000  Al
0.000000000000 0.500000000000 0.500000000000  Al
0.500000000000 0.500000000000 0.500000000000  Al
