elephon created this file
0
Gamma Monkhorst-Pack
12 12 12
0.000000 0.000000 0.000000
